NAME          DCAP_3_4_2_300_SS271
ROWS
 N  OBJ
 L  CON1
 L  CON2
 L  CON3
 L  CON4
 L  CON5
 L  CON6
 L  CON7
 L  CON8
 L  CON9
 L  CON10
 L  CON11
 L  CON12
 E  CON13
 E  CON14
 E  CON15
 E  CON16
 E  CON17
 E  CON18
 E  CON19
 E  CON20
COLUMNS
    x[1,1]    OBJ       6.180167      CON1      1.000000    
    x[1,1]    CON7      -1.000000     CON8      -1.000000   
    x[1,2]    OBJ       5.039546      CON2      1.000000    
    x[1,2]    CON8      -1.000000   
    x[2,1]    OBJ       6.732585      CON3      1.000000    
    x[2,1]    CON9      -1.000000     CON10     -1.000000   
    x[2,2]    OBJ       7.443064      CON4      1.000000    
    x[2,2]    CON10     -1.000000   
    x[3,1]    OBJ       6.563535      CON5      1.000000    
    x[3,1]    CON11     -1.000000     CON12     -1.000000   
    x[3,2]    OBJ       6.054841      CON6      1.000000    
    x[3,2]    CON12     -1.000000   
    MARKER    'MARKER'                'INTORG'
    u[1,1]    OBJ       48.076654     CON1      -1.000000   
    u[1,2]    OBJ       49.466655     CON2      -1.000000   
    u[2,1]    OBJ       49.996186     CON3      -1.000000   
    u[2,2]    OBJ       32.230043     CON4      -1.000000   
    u[3,1]    OBJ       20.066487     CON5      -1.000000   
    u[3,2]    OBJ       27.484319     CON6      -1.000000   
    y[1,1,1]  OBJ       7.007937      CON7      1.177368    
    y[1,1,1]  CON13     1.000000    
    y[1,1,2]  OBJ       9.622879      CON8      1.168177    
    y[1,1,2]  CON14     1.000000    
    y[1,2,1]  OBJ       7.681625      CON7      0.938766    
    y[1,2,1]  CON15     1.000000    
    y[1,2,2]  OBJ       5.484061      CON8      1.437256    
    y[1,2,2]  CON16     1.000000    
    y[1,3,1]  OBJ       9.147654      CON7      1.436178    
    y[1,3,1]  CON17     1.000000    
    y[1,3,2]  OBJ       8.962514      CON8      1.263496    
    y[1,3,2]  CON18     1.000000    
    y[1,4,1]  OBJ       6.701639      CON7      0.677870    
    y[1,4,1]  CON19     1.000000    
    y[1,4,2]  OBJ       9.491363      CON8      0.986609    
    y[1,4,2]  CON20     1.000000    
    y[2,1,1]  OBJ       5.171782      CON9      1.177368    
    y[2,1,1]  CON13     1.000000    
    y[2,1,2]  OBJ       9.082635      CON10     1.168177    
    y[2,1,2]  CON14     1.000000    
    y[2,2,1]  OBJ       9.876322      CON9      0.938766    
    y[2,2,1]  CON15     1.000000    
    y[2,2,2]  OBJ       7.508577      CON10     1.437256    
    y[2,2,2]  CON16     1.000000    
    y[2,3,1]  OBJ       8.718739      CON9      1.436178    
    y[2,3,1]  CON17     1.000000    
    y[2,3,2]  OBJ       5.253423      CON10     1.263496    
    y[2,3,2]  CON18     1.000000    
    y[2,4,1]  OBJ       9.919272      CON9      0.677870    
    y[2,4,1]  CON19     1.000000    
    y[2,4,2]  OBJ       7.585317      CON10     0.986609    
    y[2,4,2]  CON20     1.000000    
    y[3,1,1]  OBJ       5.709633      CON11     1.177368    
    y[3,1,1]  CON13     1.000000    
    y[3,1,2]  OBJ       8.593436      CON12     1.168177    
    y[3,1,2]  CON14     1.000000    
    y[3,2,1]  OBJ       8.678002      CON11     0.938766    
    y[3,2,1]  CON15     1.000000    
    y[3,2,2]  OBJ       9.893612      CON12     1.437256    
    y[3,2,2]  CON16     1.000000    
    y[3,3,1]  OBJ       8.627801      CON11     1.436178    
    y[3,3,1]  CON17     1.000000    
    y[3,3,2]  OBJ       6.018259      CON12     1.263496    
    y[3,3,2]  CON18     1.000000    
    y[3,4,1]  OBJ       5.415930      CON11     0.677870    
    y[3,4,1]  CON19     1.000000    
    y[3,4,2]  OBJ       7.059603      CON12     0.986609    
    y[3,4,2]  CON20     1.000000    
    z[1,1]    OBJ       847.634949    CON13     1.000000    
    z[1,2]    OBJ       574.292219    CON14     1.000000    
    z[2,1]    OBJ       615.669532    CON15     1.000000    
    z[2,2]    OBJ       986.605673    CON16     1.000000    
    z[3,1]    OBJ       545.349921    CON17     1.000000    
    z[3,2]    OBJ       813.104615    CON18     1.000000    
    z[4,1]    OBJ       729.460834    CON19     1.000000    
    z[4,2]    OBJ       671.484468    CON20     1.000000    
    MARKER    'MARKER'                 'INTEND'
RHS
    RHS       CON1      -0.000000     CON2      -0.000000   
    RHS       CON3      -0.000000     CON4      -0.000000   
    RHS       CON5      -0.000000     CON6      -0.000000   
    RHS       CON7      -0.000000     CON8      -0.000000   
    RHS       CON9      -0.000000     CON10     -0.000000   
    RHS       CON11     -0.000000     CON12     -0.000000   
    RHS       CON13     1.000000      CON14     1.000000    
    RHS       CON15     1.000000      CON16     1.000000    
    RHS       CON17     1.000000      CON18     1.000000    
    RHS       CON19     1.000000      CON20     1.000000    
BOUNDS
 BV BOUND     u[1,1]  
 BV BOUND     u[1,2]  
 BV BOUND     u[2,1]  
 BV BOUND     u[2,2]  
 BV BOUND     u[3,1]  
 BV BOUND     u[3,2]  
 BV BOUND     y[1,1,1]
 BV BOUND     y[1,1,2]
 BV BOUND     y[1,2,1]
 BV BOUND     y[1,2,2]
 BV BOUND     y[1,3,1]
 BV BOUND     y[1,3,2]
 BV BOUND     y[1,4,1]
 BV BOUND     y[1,4,2]
 BV BOUND     y[2,1,1]
 BV BOUND     y[2,1,2]
 BV BOUND     y[2,2,1]
 BV BOUND     y[2,2,2]
 BV BOUND     y[2,3,1]
 BV BOUND     y[2,3,2]
 BV BOUND     y[2,4,1]
 BV BOUND     y[2,4,2]
 BV BOUND     y[3,1,1]
 BV BOUND     y[3,1,2]
 BV BOUND     y[3,2,1]
 BV BOUND     y[3,2,2]
 BV BOUND     y[3,3,1]
 BV BOUND     y[3,3,2]
 BV BOUND     y[3,4,1]
 BV BOUND     y[3,4,2]
 BV BOUND     z[1,1]  
 BV BOUND     z[1,2]  
 BV BOUND     z[2,1]  
 BV BOUND     z[2,2]  
 BV BOUND     z[3,1]  
 BV BOUND     z[3,2]  
 BV BOUND     z[4,1]  
 BV BOUND     z[4,2]  
ENDATA
